set VV := 0 1 2 3 4 5 6 7 8 9 10 11 12 13 14 15 16 17 18 19 20 21 22 23 24 25 26 ;
set VS := 0 1 2 3 4 5 6 7 8 9 10 11 12 13 14 15 16 17 18 19 20 21 22 23 24 25 26 27 28 29 30 31 32 33 34 35 36 37 38 39 40 41 42 43 44 45 46 47 48 49 50 51 52 53 54 55 56 57 ;
param cv := 
0 25
1 18
2 11
3 15
4 17
5 25
6 14
7 23
8 23
9 16
10 21
11 18
12 12
13 14
14 15
15 25
16 11
17 15
18 15
19 18
20 20
21 13
22 12
23 18
24 18
25 17
26 17
;
param cs := 
0 36
1 35
2 22
3 37
4 26
5 29
6 22
7 35
8 27
9 24
10 39
11 38
12 40
13 26
14 32
15 32
16 33
17 24
18 32
19 26
20 27
21 33
22 30
23 27
24 34
25 29
26 27
27 35
28 21
29 35
30 40
31 21
32 20
33 29
34 35
35 32
36 33
37 35
38 29
39 22
40 29
41 35
42 35
43 40
44 33
45 27
46 26
47 21
48 27
49 20
50 22
51 34
52 20
53 21
54 25
55 36
56 38
57 33
;
param bv:	 0 1 2 3 4 5 6 7 8 9 10 11 12 13 14 15 16 17 18 19 20 21 22 23 24 25 26 := 
		0 0 0 19 0 14 0 0 0 24 20 0 24 0 0 10 0 0 0 0 0 0 0 0 0 0 0 0 
		1 0 0 10 11 24 0 0 0 23 0 0 0 0 0 0 0 13 0 0 21 0 12 0 23 0 0 0 
		2 0 0 0 18 0 0 0 0 0 0 0 16 17 0 0 0 0 0 0 0 0 0 0 0 0 0 20 
		3 0 0 0 0 0 0 0 0 0 0 0 0 0 0 0 0 17 0 0 0 0 0 0 0 0 0 0 
		4 0 0 0 0 0 0 10 0 0 0 0 0 0 0 0 0 0 0 0 0 0 0 0 0 0 0 0 
		5 0 0 0 0 0 0 0 0 13 0 0 0 0 0 0 0 24 0 0 0 0 0 0 0 0 0 0 
		6 0 0 0 0 0 0 0 0 0 0 0 0 0 0 0 0 0 19 0 0 0 0 0 0 0 0 0 
		7 0 0 0 0 0 0 0 0 0 0 0 0 0 0 14 0 0 0 0 0 0 0 0 0 0 0 0 
		8 0 0 0 0 0 0 0 0 0 0 25 0 0 0 0 0 11 0 0 0 0 0 0 0 0 0 0 
		9 0 0 0 0 0 0 0 0 0 0 0 0 0 10 0 0 0 0 0 0 0 0 0 0 0 0 0 
		10 0 0 0 0 0 0 0 0 0 0 0 0 0 0 0 0 0 0 24 0 0 0 0 0 0 0 0 
		11 0 0 0 0 0 0 0 0 0 0 0 0 0 0 0 0 0 0 0 0 0 19 0 0 14 0 0 
		12 0 0 0 0 0 0 0 0 0 0 0 0 0 0 0 0 0 11 0 17 0 0 0 23 0 0 17 
		13 0 0 0 0 0 0 0 0 0 0 0 0 0 0 0 0 0 0 0 0 0 0 0 0 0 0 0 
		14 0 0 0 0 0 0 0 0 0 0 0 0 0 0 0 0 0 0 0 0 11 0 0 0 0 0 0 
		15 0 0 0 0 0 0 0 0 0 0 0 0 0 0 0 0 11 0 0 0 0 0 0 18 0 18 0 
		16 0 0 0 0 0 0 0 0 0 0 0 0 0 0 0 0 0 0 0 0 0 0 0 18 0 0 12 
		17 0 0 0 0 0 0 0 0 0 0 0 0 0 0 0 0 0 0 0 0 0 0 0 0 0 0 0 
		18 0 0 0 0 0 0 0 0 0 0 0 0 0 0 0 0 0 0 0 0 0 0 0 0 0 0 0 
		19 0 0 0 0 0 0 0 0 0 0 0 0 0 0 0 0 0 0 0 0 0 0 0 0 0 0 0 
		20 0 0 0 0 0 0 0 0 0 0 0 0 0 0 0 0 0 0 0 0 0 0 0 0 0 0 0 
		21 0 0 0 0 0 0 0 0 0 0 0 0 0 0 0 0 0 0 0 0 0 0 0 0 0 0 0 
		22 0 0 0 0 0 0 0 0 0 0 0 0 0 0 0 0 0 0 0 0 0 0 0 25 0 25 0 
		23 0 0 0 0 0 0 0 0 0 0 0 0 0 0 0 0 0 0 0 0 0 0 0 0 0 0 0 
		24 0 0 0 0 0 0 0 0 0 0 0 0 0 0 0 0 0 0 0 0 0 0 0 0 0 0 0 
		25 0 0 0 0 0 0 0 0 0 0 0 0 0 0 0 0 0 0 0 0 0 0 0 0 0 0 0 
		26 0 0 0 0 0 0 0 0 0 0 0 0 0 0 0 0 0 0 0 0 0 0 0 0 0 0 0 
;
param bs:	 0 1 2 3 4 5 6 7 8 9 10 11 12 13 14 15 16 17 18 19 20 21 22 23 24 25 26 27 28 29 30 31 32 33 34 35 36 37 38 39 40 41 42 43 44 45 46 47 48 49 50 51 52 53 54 55 56 57 := 
		0 0 0 0 0 0 0 0 0 0 0 0 0 35 0 40 0 0 0 0 24 0 0 0 20 0 0 0 0 0 0 0 0 0 0 0 0 0 0 0 32 22 0 0 0 0 0 0 0 0 0 0 0 0 36 0 0 0 0 
		1 0 0 0 0 0 34 0 0 0 26 31 0 0 29 0 0 0 0 0 0 0 0 0 0 0 0 0 0 0 0 0 0 40 0 0 0 0 0 0 0 0 0 0 0 0 0 0 0 0 0 0 0 0 0 34 0 37 0 
		2 0 0 0 28 0 0 0 20 0 0 0 0 34 0 0 0 0 0 21 38 0 0 0 25 33 0 0 0 20 0 0 0 35 0 0 35 0 0 37 0 0 0 0 0 0 0 0 0 0 0 0 0 0 0 0 0 38 0 
		3 0 0 28 0 21 27 0 0 0 0 40 0 0 0 0 0 0 0 0 0 0 0 0 0 0 0 0 0 31 38 0 0 0 0 0 0 0 0 0 0 0 0 0 30 0 0 0 0 0 0 0 0 0 0 0 20 0 0 
		4 0 0 0 21 0 0 0 0 0 0 0 0 0 0 0 0 0 28 0 0 0 0 0 0 0 0 0 0 0 0 0 0 0 0 0 40 0 0 0 0 0 0 39 0 0 0 38 0 0 0 0 39 0 0 0 0 0 23 
		5 0 34 0 27 0 0 0 0 0 0 0 0 0 0 38 0 0 0 0 0 0 0 0 0 0 0 22 0 0 0 0 0 0 0 0 0 33 0 0 0 0 0 0 31 0 21 0 0 27 35 0 0 22 0 0 0 0 0 
		6 0 0 0 0 0 0 0 0 0 0 0 0 0 0 0 0 0 0 0 0 0 0 0 0 0 0 0 0 32 0 0 0 0 0 0 0 0 0 0 0 0 0 0 0 0 0 0 0 0 0 0 0 0 0 0 0 0 0 
		7 0 0 20 0 0 0 0 0 40 0 38 0 0 0 0 0 0 0 0 0 0 32 0 0 0 0 0 0 24 0 0 0 0 31 0 0 0 0 0 0 0 0 0 0 0 0 0 0 0 0 0 0 0 0 0 0 0 0 
		8 0 0 0 0 0 0 0 40 0 0 24 0 0 0 0 0 0 0 0 0 23 0 0 0 0 0 0 0 0 30 0 0 0 0 0 0 0 0 0 0 27 0 0 0 0 0 0 0 0 0 0 0 0 0 27 0 0 0 
		9 0 26 0 0 0 0 0 0 0 0 0 0 0 0 0 0 27 0 26 35 0 0 32 0 0 0 0 0 0 0 0 0 0 0 0 0 0 0 0 0 0 0 37 0 0 24 27 0 0 0 0 0 0 31 0 25 0 0 
		10 0 31 0 40 0 0 0 38 24 0 0 0 24 36 0 0 0 0 0 0 0 36 0 0 0 0 0 0 0 0 0 0 0 0 21 0 0 0 25 0 0 0 0 0 31 0 0 0 0 0 0 0 0 0 31 0 0 0 
		11 0 0 0 0 0 0 0 0 0 0 0 0 0 0 0 0 0 0 0 0 0 0 0 0 0 0 0 40 25 30 0 0 0 33 0 0 35 0 0 0 0 0 0 0 0 0 0 21 0 36 0 0 0 0 0 0 0 0 
		12 35 0 34 0 0 0 0 0 0 0 24 0 0 0 0 32 0 31 0 0 0 0 0 0 0 0 0 0 0 0 37 0 0 0 0 36 0 38 0 0 0 0 0 0 0 0 33 0 40 0 0 0 0 0 0 0 0 0 
		13 0 29 0 0 0 0 0 0 0 0 36 0 0 0 0 0 0 0 0 0 26 39 0 0 0 0 40 28 0 0 0 0 0 0 0 0 30 0 0 0 0 0 0 20 0 0 0 0 0 40 0 0 0 0 0 0 0 0 
		14 40 0 0 0 0 38 0 0 0 0 0 0 0 0 0 0 0 0 0 0 0 0 0 0 0 0 0 0 0 0 0 0 31 0 0 0 0 0 0 0 0 0 0 0 0 0 0 28 0 0 0 0 0 0 0 0 0 0 
		15 0 0 0 0 0 0 0 0 0 0 0 0 32 0 0 0 25 0 0 0 0 0 0 0 0 0 0 0 0 0 0 0 0 0 0 0 0 0 0 0 0 0 26 0 0 0 0 0 0 0 0 27 0 29 0 0 0 0 
		16 0 0 0 0 0 0 0 0 0 27 0 0 0 0 0 25 0 0 0 0 0 0 0 0 31 0 0 37 0 0 0 0 0 0 0 0 0 34 0 0 0 0 0 0 0 0 0 0 0 0 0 0 0 0 0 0 0 0 
		17 0 0 0 0 28 0 0 0 0 0 0 0 31 0 0 0 0 0 0 40 0 0 0 0 0 0 0 0 0 0 0 0 0 0 0 0 0 0 0 0 0 0 0 0 0 0 0 0 0 0 0 38 0 0 0 0 0 0 
		18 0 0 21 0 0 0 0 0 0 26 0 0 0 0 0 0 0 0 0 34 0 22 0 0 0 0 0 0 0 0 0 25 23 0 0 0 0 0 0 0 0 0 0 0 0 0 0 0 0 0 0 30 0 0 0 0 0 0 
		19 24 0 38 0 0 0 0 0 0 35 0 0 0 0 0 0 0 40 34 0 0 0 0 0 0 0 0 0 0 0 26 0 39 0 0 0 0 0 0 0 0 39 0 0 0 0 0 0 0 0 0 21 0 29 0 0 25 0 
		20 0 0 0 0 0 0 0 0 23 0 0 0 0 26 0 0 0 0 0 0 0 0 0 0 0 0 0 0 0 0 31 0 0 0 0 0 0 0 0 0 0 0 0 0 0 27 0 0 0 0 23 0 0 0 33 0 0 0 
		21 0 0 0 0 0 0 0 32 0 0 36 0 0 39 0 0 0 0 22 0 0 0 0 22 0 0 28 36 0 0 0 0 0 0 0 0 39 0 35 0 0 0 0 0 0 0 0 28 0 0 0 0 0 0 37 0 0 0 
		22 0 0 0 0 0 0 0 0 0 32 0 0 0 0 0 0 0 0 0 0 0 0 0 0 0 22 0 0 0 0 0 0 0 0 0 0 0 0 0 0 0 0 0 0 0 38 0 26 0 0 0 0 0 36 0 29 0 0 
		23 20 0 25 0 0 0 0 0 0 0 0 0 0 0 0 0 0 0 0 0 0 22 0 0 0 0 0 40 0 0 0 0 0 0 0 0 0 0 0 0 24 0 0 0 0 0 0 0 0 0 0 0 0 0 0 0 0 0 
		24 0 0 33 0 0 0 0 0 0 0 0 0 0 0 0 0 31 0 0 0 0 0 0 0 0 0 0 0 0 0 0 0 37 0 0 0 0 0 0 0 0 0 0 35 0 0 0 0 40 0 0 0 0 0 0 35 0 0 
		25 0 0 0 0 0 0 0 0 0 0 0 0 0 0 0 0 0 0 0 0 0 0 22 0 0 0 20 0 0 0 0 0 0 0 0 36 0 0 0 0 0 25 0 0 0 0 0 0 0 0 0 0 32 0 0 0 0 0 
		26 0 0 0 0 0 22 0 0 0 0 0 0 0 40 0 0 0 0 0 0 0 28 0 0 0 20 0 40 0 0 0 0 0 0 0 0 40 0 0 0 0 0 0 0 0 0 0 0 0 0 0 0 0 0 0 0 0 0 
		27 0 0 0 0 0 0 0 0 0 0 0 40 0 28 0 0 37 0 0 0 0 36 0 40 0 0 40 0 26 0 0 0 0 0 30 0 0 0 0 0 0 0 0 0 0 0 0 0 0 0 0 0 0 0 0 0 33 0 
		28 0 0 20 31 0 0 32 24 0 0 0 25 0 0 0 0 0 0 0 0 0 0 0 0 0 0 0 26 0 26 0 0 0 0 0 0 0 0 0 26 34 0 0 0 0 0 0 0 0 0 0 0 0 0 23 0 0 0 
		29 0 0 0 38 0 0 0 0 30 0 0 30 0 0 0 0 0 0 0 0 0 0 0 0 0 0 0 0 26 0 0 0 0 0 0 0 0 0 0 26 0 0 0 0 0 0 0 0 0 0 0 0 0 0 0 0 0 0 
		30 0 0 0 0 0 0 0 0 0 0 0 0 37 0 0 0 0 0 0 26 31 0 0 0 0 0 0 0 0 0 0 0 0 37 0 0 0 29 22 0 0 0 23 0 24 0 0 0 0 0 0 0 0 0 0 0 0 37 
		31 0 0 0 0 0 0 0 0 0 0 0 0 0 0 0 0 0 0 25 0 0 0 0 0 0 0 0 0 0 0 0 0 0 0 0 0 0 0 0 0 0 0 0 0 0 0 0 0 0 0 0 0 0 27 0 0 0 0 
		32 0 40 35 0 0 0 0 0 0 0 0 0 0 0 31 0 0 0 23 39 0 0 0 0 37 0 0 0 0 0 0 0 0 0 0 0 0 0 0 0 24 37 0 0 0 0 0 0 0 0 0 0 0 0 0 0 0 0 
		33 0 0 0 0 0 0 0 31 0 0 0 33 0 0 0 0 0 0 0 0 0 0 0 0 0 0 0 0 0 0 37 0 0 0 0 0 0 36 0 0 0 0 0 0 0 0 0 0 0 0 0 0 0 30 0 0 0 0 
		34 0 0 0 0 0 0 0 0 0 0 21 0 0 0 0 0 0 0 0 0 0 0 0 0 0 0 0 30 0 0 0 0 0 0 0 0 0 0 27 0 0 0 0 30 0 0 0 0 0 0 0 0 0 0 0 0 0 0 
		35 0 0 35 0 40 0 0 0 0 0 0 0 36 0 0 0 0 0 0 0 0 0 0 0 0 36 0 0 0 0 0 0 0 0 0 0 0 0 0 0 0 0 0 0 0 0 25 0 0 0 35 0 0 36 0 38 0 0 
		36 0 0 0 0 0 33 0 0 0 0 0 35 0 30 0 0 0 0 0 0 0 39 0 0 0 0 40 0 0 0 0 0 0 0 0 0 0 0 0 0 0 0 36 33 0 0 0 0 0 0 0 28 0 0 0 0 0 0 
		37 0 0 0 0 0 0 0 0 0 0 0 0 38 0 0 0 34 0 0 0 0 0 0 0 0 0 0 0 0 0 29 0 0 36 0 0 0 0 0 0 0 0 0 0 0 0 29 0 0 0 0 0 0 0 0 0 0 0 
		38 0 0 37 0 0 0 0 0 0 0 25 0 0 0 0 0 0 0 0 0 0 35 0 0 0 0 0 0 0 0 22 0 0 0 27 0 0 0 0 24 0 0 0 0 0 0 23 0 0 0 0 0 34 0 0 0 0 0 
		39 32 0 0 0 0 0 0 0 0 0 0 0 0 0 0 0 0 0 0 0 0 0 0 0 0 0 0 0 26 26 0 0 0 0 0 0 0 0 24 0 0 0 0 0 22 0 0 0 0 23 0 0 0 0 0 0 0 0 
		40 22 0 0 0 0 0 0 0 27 0 0 0 0 0 0 0 0 0 0 0 0 0 0 24 0 0 0 0 34 0 0 0 24 0 0 0 0 0 0 0 0 0 0 0 0 0 0 0 0 0 0 0 0 0 0 0 0 0 
		41 0 0 0 0 0 0 0 0 0 0 0 0 0 0 0 0 0 0 0 39 0 0 0 0 0 25 0 0 0 0 0 0 37 0 0 0 0 0 0 0 0 0 0 0 0 0 22 0 0 31 0 24 21 0 28 0 0 0 
		42 0 0 0 0 39 0 0 0 0 37 0 0 0 0 0 26 0 0 0 0 0 0 0 0 0 0 0 0 0 0 23 0 0 0 0 0 36 0 0 0 0 0 0 0 0 39 0 0 0 0 0 0 0 0 0 0 0 0 
		43 0 0 0 30 0 31 0 0 0 0 0 0 0 20 0 0 0 0 0 0 0 0 0 0 35 0 0 0 0 0 0 0 0 0 30 0 33 0 0 0 0 0 0 0 0 0 0 0 0 20 0 0 21 0 0 0 26 0 
		44 0 0 0 0 0 0 0 0 0 0 31 0 0 0 0 0 0 0 0 0 0 0 0 0 0 0 0 0 0 0 24 0 0 0 0 0 0 0 0 22 0 0 0 0 0 0 0 0 0 0 0 0 0 0 0 0 0 0 
		45 0 0 0 0 0 21 0 0 0 24 0 0 0 0 0 0 0 0 0 0 27 0 38 0 0 0 0 0 0 0 0 0 0 0 0 0 0 0 0 0 0 0 39 0 0 0 0 0 0 0 0 0 0 0 0 36 0 0 
		46 0 0 0 0 38 0 0 0 0 27 0 0 33 0 0 0 0 0 0 0 0 0 0 0 0 0 0 0 0 0 0 0 0 0 0 25 0 29 23 0 0 22 0 0 0 0 0 0 23 0 0 0 0 0 0 0 0 0 
		47 0 0 0 0 0 0 0 0 0 0 0 21 0 0 28 0 0 0 0 0 0 28 26 0 0 0 0 0 0 0 0 0 0 0 0 0 0 0 0 0 0 0 0 0 0 0 0 0 0 0 0 0 0 34 0 0 25 0 
		48 0 0 0 0 0 27 0 0 0 0 0 0 40 0 0 0 0 0 0 0 0 0 0 0 40 0 0 0 0 0 0 0 0 0 0 0 0 0 0 0 0 0 0 0 0 0 23 0 0 0 0 0 0 0 0 0 0 30 
		49 0 0 0 0 0 35 0 0 0 0 0 36 0 40 0 0 0 0 0 0 0 0 0 0 0 0 0 0 0 0 0 0 0 0 0 0 0 0 0 23 0 31 0 20 0 0 0 0 0 0 0 0 0 0 36 0 0 0 
		50 0 0 0 0 0 0 0 0 0 0 0 0 0 0 0 0 0 0 0 0 23 0 0 0 0 0 0 0 0 0 0 0 0 0 0 35 0 0 0 0 0 0 0 0 0 0 0 0 0 0 0 0 0 0 0 0 0 0 
		51 0 0 0 0 39 0 0 0 0 0 0 0 0 0 0 27 0 38 30 21 0 0 0 0 0 0 0 0 0 0 0 0 0 0 0 0 28 0 0 0 0 24 0 0 0 0 0 0 0 0 0 0 0 0 0 0 0 0 
		52 0 0 0 0 0 22 0 0 0 0 0 0 0 0 0 0 0 0 0 0 0 0 0 0 0 32 0 0 0 0 0 0 0 0 0 0 0 0 34 0 0 21 0 21 0 0 0 0 0 0 0 0 0 0 0 0 0 0 
		53 36 0 0 0 0 0 0 0 0 31 0 0 0 0 0 29 0 0 0 29 0 0 36 0 0 0 0 0 0 0 0 27 0 30 0 36 0 0 0 0 0 0 0 0 0 0 0 34 0 0 0 0 0 0 0 0 0 0 
		54 0 34 0 0 0 0 0 0 27 0 31 0 0 0 0 0 0 0 0 0 33 37 0 0 0 0 0 0 23 0 0 0 0 0 0 0 0 0 0 0 0 28 0 0 0 0 0 0 0 36 0 0 0 0 0 0 0 0 
		55 0 0 0 20 0 0 0 0 0 25 0 0 0 0 0 0 0 0 0 0 0 0 29 0 35 0 0 0 0 0 0 0 0 0 0 38 0 0 0 0 0 0 0 0 0 36 0 0 0 0 0 0 0 0 0 0 0 0 
		56 0 37 38 0 0 0 0 0 0 0 0 0 0 0 0 0 0 0 0 25 0 0 0 0 0 0 0 33 0 0 0 0 0 0 0 0 0 0 0 0 0 0 0 26 0 0 0 25 0 0 0 0 0 0 0 0 0 33 
		57 0 0 0 0 23 0 0 0 0 0 0 0 0 0 0 0 0 0 0 0 0 0 0 0 0 0 0 0 0 0 37 0 0 0 0 0 0 0 0 0 0 0 0 0 0 0 0 0 30 0 0 0 0 0 0 0 33 0 
;
